
Value of objective function: -464.753

Actual values of the variables:
X02                          25.5
X14                       18.2143
X23                        475.92
X36                       339.943
X39                             0
X01                            80
X03                          54.5
X04                          84.8
X06                        58.156
X07                             0
X08                             0
X09                             0
X15                       39.9417
X16                       61.6454
X10                             0
X11                             0
X12                             0
X13                             0
X22                           500
X24                         24.08
X25                             0
X26                           215
X28                       366.438
X29                             0
X30                             0
X31                             0
X38                       157.568
X37                        17.505
X32                             0
X33                             0
X34                             0
X35                             0
